17,8	0,0	19,8	8,3	0,0	0,0	0,0	0,0	0,0	14,7
7,3	15,0	0,0	18,6	7,4	0,0	0,0	5,1	0,0	0,0
0,0	0,0	17,7	0,0	12,4	14,6	0,0	0,0	7,9	0,0
17,5	0,0	16,9	0,0	0,0	0,0	5,5	0,0	0,0	0,0
0,0	10,9	0,0	8,6	6,2	0,0	0,0	15,2	0,0	0,0
0,0	13,3	6,0	0,0	5,1	19,0	0,0	0,0	11,8	0,0
0,0	15,7	0,0	8,4	0,0	0,0	12,1	0,0	0,0	13,0
13,3	0,0	14,8	0,0	0,0	0,0	0,0	0,0	0,0	14,7
0,0	9,6	0,0	8,0	10,8	0,0	0,0	9,2	0,0	0,0
0,0	0,0	18,2	0,0	0,0	6,0	12,0	0,0	0,0	9,4
0,0	15,6	0,0	0,0	18,6	0,0	13,0	0,0	15,6	8,2
10,1	0,0	5,2	0,0	11,4	0,0	17,7	6,1	8,2	0,0
0,0	7,7	0,0	0,0	0,0	12,2	0,0	18,3	14,7	12,8
10,1	15,4	12,6	0,0	0,0	13,4	0,0	10,4	15,4	0,0
14,0	0,0	14,1	0,0	10,5	13,7	20,0	11,3	0,0	0,0
0,0	9,0	0,0	8,5	0,0	17,8	0,0	12,7	0,0	0,0
5,2	0,0	6,5	14,2	11,7	0,0	0,0	19,4	0,0	0,0
0,0	0,0	7,8	0,0	0,0	7,4	10,1	0,0	14,1	10,9
10,5	0,0	0,0	8,5	15,2	7,7	9,6	6,5	0,0	7,4
0,0	16,7	0,0	12,6	0,0	0,0	18,9	0,0	11,6	19,6
									
4,9	4,3	4,5	4,3	3,2	3,8	3,0	2,9	5,0	4,5
